% From JaCoP's nonogramRepository/data029.nin
 rows = 30;
 row_rule_len = 3;
 row_rules = array2d(1..rows, 1..row_rule_len, 
[
 0,0,1,
 0,0,14,
 0,0,3,
 0,2,3,
 0,2,3,
 0,2,4,
 0,3,2,
 0,0,8,
 0,8,6,
 0,0,14,
 0,0,16,
 0,4,10,
 0,4,10,
 0,5,10,
 0,5,10,
 0,6,8,
 0,6,6,
 0,0,7,
 0,0,7,
 7,2,2,
 0,7,6,
 0,6,4,
 0,6,4,
 0,6,4,
 0,5,3,
 0,6,3,
 0,0,12,
 0,0,10,
 0,0,8,
 0,0,5
]);

 cols = 20;
 col_rule_len = 4;
 col_rules = array2d(1..cols, 1..col_rule_len, 
[
 0,0,0,2,
 0,0,4,5,
 0,2,2,9,
 0,2,2,12,
 2,2,1,15,
 0,0,3,22,
 0,1,3,23,
 0,1,18,5,
 0,1,16,4,
 1,1,3,4,
 0,1,7,4,
 1,7,2,3,
 0,1,9,10,
 0,1,9,8,
 0,1,9,7,
 0,1,9,5,
 0,1,9,2,
 0,0,1,9,
 0,0,0,7,
 0,0,0,5
]);

